(set-logic BV) (define-fun origCir ((n118 Bool) (n107 Bool) (i_13 Bool) (n117 Bool)) Bool (and (xor (and n107 i_13) n118) n117)) (synth-fun skel ((n118 Bool) (n107 Bool) (i_13 Bool) (n117 Bool)) Bool) (declare-var n118 Bool) (declare-var n107 Bool) (declare-var i_13 Bool) (declare-var n117 Bool) (constraint (= (origCir n118 n107 i_13 n117) (skel n118 n107 i_13 n117))) (check-synth)
